14° run output:
{
    "Function": "kroB750.tsp",
    "Problem dimension": [
        638,
        24,
        287,
        104,
        117,
        436,
        160,
        365,
        423,
        646,
        612,
        264,
        215,
        346,
        402,
        84,
        571,
        300,
        281,
        689,
        542,
        573,
        513,
        305,
        525,
        488,
        687,
        103,
        493,
        682,
        523,
        71,
        457,
        583,
        702,
        444,
        680,
        14,
        223,
        345,
        147,
        209,
        4,
        671,
        271,
        237,
        550,
        270,
        437,
        426,
        137,
        495,
        145,
        363,
        672,
        139,
        375,
        351,
        36,
        8,
        241,
        474,
        123,
        242,
        541,
        715,
        539,
        543,
        72,
        328,
        397,
        266,
        233,
        640,
        494,
        430,
        564,
        364,
        535,
        352,
        472,
        348,
        361,
        670,
        659,
        179,
        441,
        48,
        518,
        73,
        34,
        208,
        258,
        506,
        521,
        517,
        326,
        431,
        26,
        677,
        567,
        262,
        156,
        171,
        694,
        110,
        141,
        170,
        420,
        267,
        666,
        35,
        382,
        562,
        540,
        647,
        220,
        279,
        371,
        657,
        374,
        340,
        369,
        164,
        653,
        172,
        99,
        98,
        135,
        217,
        9,
        679,
        578,
        268,
        623,
        454,
        366,
        280,
        255,
        149,
        728,
        549,
        113,
        534,
        318,
        388,
        63,
        198,
        27,
        224,
        685,
        483,
        216,
        41,
        747,
        321,
        592,
        273,
        645,
        335,
        533,
        496,
        197,
        131,
        250,
        59,
        691,
        466,
        558,
        194,
        146,
        286,
        25,
        739,
        413,
        401,
        74,
        588,
        606,
        94,
        85,
        530,
        344,
        394,
        51,
        729,
        658,
        231,
        133,
        604,
        745,
        385,
        443,
        77,
        257,
        630,
        260,
        463,
        20,
        570,
        681,
        619,
        200,
        178,
        470,
        184,
        353,
        319,
        561,
        608,
        575,
        684,
        497,
        296,
        161,
        80,
        628,
        554,
        581,
        0,
        314,
        210,
        706,
        720,
        648,
        668,
        505,
        65,
        13,
        181,
        163,
        297,
        669,
        448,
        442,
        100,
        203,
        263,
        92,
        342,
        409,
        67,
        415,
        400,
        528,
        526,
        202,
        188,
        193,
        16,
        186,
        284,
        667,
        248,
        91,
        598,
        419,
        590,
        90,
        235,
        665,
        700,
        451,
        695,
        632,
        169,
        510,
        299,
        165,
        293,
        453,
        428,
        477,
        473,
        111,
        644,
        130,
        173,
        664,
        298,
        673,
        424,
        565,
        191,
        490,
        190,
        576,
        398,
        372,
        93,
        475,
        192,
        175,
        501,
        603,
        38,
        245,
        693,
        157,
        151,
        727,
        548,
        174,
        39,
        22,
        515,
        652,
        649,
        690,
        89,
        599,
        408,
        303,
        719,
        143,
        487,
        484,
        66,
        486,
        563,
        275,
        508,
        566,
        183,
        380,
        138,
        499,
        596,
        683,
        119,
        733,
        736,
        686,
        230,
        155,
        507,
        234,
        390,
        568,
        276,
        634,
        290,
        128,
        462,
        69,
        325,
        159,
        134,
        323,
        355,
        265,
        524,
        57,
        399,
        102,
        3,
        158,
        478,
        492,
        49,
        18,
        620,
        594,
        101,
        228,
        120,
        642,
        591,
        33,
        256,
        577,
        520,
        602,
        108,
        467,
        333,
        272,
        716,
        734,
        585,
        663,
        327,
        519,
        78,
        6,
        656,
        396,
        742,
        600,
        182,
        701,
        698,
        1,
        587,
        582,
        731,
        407,
        162,
        406,
        730,
        153,
        142,
        392,
        482,
        574,
        529,
        367,
        86,
        503,
        253,
        384,
        559,
        531,
        404,
        125,
        176,
        122,
        358,
        377,
        393,
        249,
        282,
        491,
        435,
        261,
        308,
        545,
        485,
        30,
        713,
        227,
        7,
        449,
        107,
        37,
        445,
        626,
        636,
        302,
        362,
        221,
        291,
        306,
        609,
        735,
        313,
        196,
        116,
        180,
        717,
        601,
        433,
        23,
        294,
        140,
        704,
        546,
        17,
        62,
        538,
        455,
        621,
        112,
        211,
        376,
        440,
        557,
        177,
        560,
        316,
        46,
        205,
        212,
        47,
        144,
        87,
        195,
        613,
        285,
        395,
        213,
        738,
        52,
        105,
        222,
        19,
        2,
        724,
        331,
        254,
        740,
        324,
        68,
        187,
        611,
        625,
        480,
        229,
        129,
        411,
        295,
        662,
        252,
        339,
        124,
        458,
        586,
        450,
        309,
        459,
        414,
        61,
        622,
        379,
        718,
        743,
        218,
        225,
        207,
        329,
        278,
        556,
        31,
        422,
        732,
        511,
        289,
        378,
        452,
        429,
        405,
        633,
        460,
        189,
        168,
        500,
        532,
        11,
        639,
        32,
        54,
        412,
        152,
        489,
        359,
        471,
        410,
        239,
        121,
        106,
        416,
        246,
        607,
        82,
        60,
        251,
        655,
        446,
        697,
        456,
        238,
        631,
        418,
        349,
        403,
        746,
        627,
        723,
        502,
        311,
        675,
        615,
        81,
        749,
        465,
        710,
        83,
        373,
        341,
        201,
        232,
        136,
        206,
        332,
        597,
        569,
        292,
        650,
        336,
        748,
        45,
        381,
        427,
        383,
        127,
        674,
        676,
        360,
        527,
        269,
        79,
        555,
        481,
        75,
        469,
        236,
        15,
        389,
        243,
        109,
        12,
        438,
        714,
        391,
        589,
        692,
        387,
        439,
        512,
        283,
        703,
        118,
        635,
        317,
        204,
        55,
        154,
        707,
        247,
        579,
        150,
        584,
        28,
        421,
        96,
        544,
        641,
        699,
        307,
        726,
        288,
        132,
        618,
        476,
        368,
        115,
        370,
        357,
        244,
        551,
        479,
        712,
        461,
        705,
        504,
        447,
        315,
        58,
        651,
        97,
        654,
        43,
        338,
        274,
        199,
        50,
        725,
        536,
        711,
        721,
        76,
        354,
        10,
        166,
        417,
        350,
        343,
        219,
        514,
        498,
        29,
        610,
        468,
        64,
        595,
        637,
        42,
        240,
        509,
        696,
        572,
        114,
        126,
        277,
        522,
        334,
        148,
        737,
        434,
        347,
        661,
        95,
        312,
        70,
        310,
        605,
        614,
        580,
        53,
        356,
        553,
        629,
        432,
        678,
        425,
        616,
        185,
        744,
        537,
        464,
        617,
        516,
        593,
        552,
        5,
        322,
        44,
        320,
        301,
        624,
        56,
        722,
        167,
        709,
        214,
        708,
        330,
        660,
        259,
        547,
        741,
        88,
        337,
        643,
        386,
        21,
        688,
        226,
        40,
        304
    ],
    "Global Optimum": 0,
    "Algorithm": "Genetic algorithm",
    "Parameters": {
        "population": 30,
        "offspring": 30,
        "mutation probability": 0.0013333333333333333,
        "crossover probability": 0.9
    },
    "Fitness": 893342,
    "Solution": [
        638,
        24,
        287,
        104,
        117,
        436,
        160,
        365,
        423,
        646,
        612,
        264,
        215,
        346,
        402,
        84,
        571,
        300,
        281,
        689,
        542,
        573,
        513,
        305,
        525,
        488,
        687,
        103,
        493,
        682,
        523,
        71,
        457,
        583,
        702,
        444,
        680,
        14,
        223,
        345,
        147,
        209,
        4,
        671,
        271,
        237,
        550,
        270,
        437,
        426,
        137,
        495,
        145,
        363,
        672,
        139,
        375,
        351,
        36,
        8,
        241,
        474,
        123,
        242,
        541,
        715,
        539,
        543,
        72,
        328,
        397,
        266,
        233,
        640,
        494,
        430,
        564,
        364,
        535,
        352,
        472,
        348,
        361,
        670,
        659,
        179,
        441,
        48,
        518,
        73,
        34,
        208,
        258,
        506,
        521,
        517,
        326,
        431,
        26,
        677,
        567,
        262,
        156,
        171,
        694,
        110,
        141,
        170,
        420,
        267,
        666,
        35,
        382,
        562,
        540,
        647,
        220,
        279,
        371,
        657,
        374,
        340,
        369,
        164,
        653,
        172,
        99,
        98,
        135,
        217,
        9,
        679,
        578,
        268,
        623,
        454,
        366,
        280,
        255,
        149,
        728,
        549,
        113,
        534,
        318,
        388,
        63,
        198,
        27,
        224,
        685,
        483,
        216,
        41,
        747,
        321,
        592,
        273,
        645,
        335,
        533,
        496,
        197,
        131,
        250,
        59,
        691,
        466,
        558,
        194,
        146,
        286,
        25,
        739,
        413,
        401,
        74,
        588,
        606,
        94,
        85,
        530,
        344,
        394,
        51,
        729,
        658,
        231,
        133,
        604,
        745,
        385,
        443,
        77,
        257,
        630,
        260,
        463,
        20,
        570,
        681,
        619,
        200,
        178,
        470,
        184,
        353,
        319,
        561,
        608,
        575,
        684,
        497,
        296,
        161,
        80,
        628,
        554,
        581,
        0,
        314,
        210,
        706,
        720,
        648,
        668,
        505,
        65,
        13,
        181,
        163,
        297,
        669,
        448,
        442,
        100,
        203,
        263,
        92,
        342,
        409,
        67,
        415,
        400,
        528,
        526,
        202,
        188,
        193,
        16,
        186,
        284,
        667,
        248,
        91,
        598,
        419,
        590,
        90,
        235,
        665,
        700,
        451,
        695,
        632,
        169,
        510,
        299,
        165,
        293,
        453,
        428,
        477,
        473,
        111,
        644,
        130,
        173,
        664,
        298,
        673,
        424,
        565,
        191,
        490,
        190,
        576,
        398,
        372,
        93,
        475,
        192,
        175,
        501,
        603,
        38,
        245,
        693,
        157,
        151,
        727,
        548,
        174,
        39,
        22,
        515,
        652,
        649,
        690,
        89,
        599,
        408,
        303,
        719,
        143,
        487,
        484,
        66,
        486,
        563,
        275,
        508,
        566,
        183,
        380,
        138,
        499,
        596,
        683,
        119,
        733,
        736,
        686,
        230,
        155,
        507,
        234,
        390,
        568,
        276,
        634,
        290,
        128,
        462,
        69,
        325,
        159,
        134,
        323,
        355,
        265,
        524,
        57,
        399,
        102,
        3,
        158,
        478,
        492,
        49,
        18,
        620,
        594,
        101,
        228,
        120,
        642,
        591,
        33,
        256,
        577,
        520,
        602,
        108,
        467,
        333,
        272,
        716,
        734,
        585,
        663,
        327,
        519,
        78,
        6,
        656,
        396,
        742,
        600,
        182,
        701,
        698,
        1,
        587,
        582,
        731,
        407,
        162,
        406,
        730,
        153,
        142,
        392,
        482,
        574,
        529,
        367,
        86,
        503,
        253,
        384,
        559,
        531,
        404,
        125,
        176,
        122,
        358,
        377,
        393,
        249,
        282,
        491,
        435,
        261,
        308,
        545,
        485,
        30,
        713,
        227,
        7,
        449,
        107,
        37,
        445,
        626,
        636,
        302,
        362,
        221,
        291,
        306,
        609,
        735,
        313,
        196,
        116,
        180,
        717,
        601,
        433,
        23,
        294,
        140,
        704,
        546,
        17,
        62,
        538,
        455,
        621,
        112,
        211,
        376,
        440,
        557,
        177,
        560,
        316,
        46,
        205,
        212,
        47,
        144,
        87,
        195,
        613,
        285,
        395,
        213,
        738,
        52,
        105,
        222,
        19,
        2,
        724,
        331,
        254,
        740,
        324,
        68,
        187,
        611,
        625,
        480,
        229,
        129,
        411,
        295,
        662,
        252,
        339,
        124,
        458,
        586,
        450,
        309,
        459,
        414,
        61,
        622,
        379,
        718,
        743,
        218,
        225,
        207,
        329,
        278,
        556,
        31,
        422,
        732,
        511,
        289,
        378,
        452,
        429,
        405,
        633,
        460,
        189,
        168,
        500,
        532,
        11,
        639,
        32,
        54,
        412,
        152,
        489,
        359,
        471,
        410,
        239,
        121,
        106,
        416,
        246,
        607,
        82,
        60,
        251,
        655,
        446,
        697,
        456,
        238,
        631,
        418,
        349,
        403,
        746,
        627,
        723,
        502,
        311,
        675,
        615,
        81,
        749,
        465,
        710,
        83,
        373,
        341,
        201,
        232,
        136,
        206,
        332,
        597,
        569,
        292,
        650,
        336,
        748,
        45,
        381,
        427,
        383,
        127,
        674,
        676,
        360,
        527,
        269,
        79,
        555,
        481,
        75,
        469,
        236,
        15,
        389,
        243,
        109,
        12,
        438,
        714,
        391,
        589,
        692,
        387,
        439,
        512,
        283,
        703,
        118,
        635,
        317,
        204,
        55,
        154,
        707,
        247,
        579,
        150,
        584,
        28,
        421,
        96,
        544,
        641,
        699,
        307,
        726,
        288,
        132,
        618,
        476,
        368,
        115,
        370,
        357,
        244,
        551,
        479,
        712,
        461,
        705,
        504,
        447,
        315,
        58,
        651,
        97,
        654,
        43,
        338,
        274,
        199,
        50,
        725,
        536,
        711,
        721,
        76,
        354,
        10,
        166,
        417,
        350,
        343,
        219,
        514,
        498,
        29,
        610,
        468,
        64,
        595,
        637,
        42,
        240,
        509,
        696,
        572,
        114,
        126,
        277,
        522,
        334,
        148,
        737,
        434,
        347,
        661,
        95,
        312,
        70,
        310,
        605,
        614,
        580,
        53,
        356,
        553,
        629,
        432,
        678,
        425,
        616,
        185,
        744,
        537,
        464,
        617,
        516,
        593,
        552,
        5,
        322,
        44,
        320,
        301,
        624,
        56,
        722,
        167,
        709,
        214,
        708,
        330,
        660,
        259,
        547,
        741,
        88,
        337,
        643,
        386,
        21,
        688,
        226,
        40,
        304
    ],
    "Nb of functions evaluations": 400020,
    "Computational time in seconds": 3176.7512383461,
    "Stopping criterion in evaluations": 400000
}